NAME meiosis_srl_ilp
* Max problem is converted into Min one
ROWS
 N  OBJ
 L  constraint1_5330
 L  constraint1_5331
 L  constraint1_2520
 L  constraint1_1810
 L  constraint1_2841
 L  constraint1_2840
 L  constraint1_2030
 L  constraint1_4020
 L  constraint2_5330
 L  constraint2_5331
 L  constraint2_5332
 L  constraint2_5333
 L  constraint2_2520
 L  constraint2_2521
 L  constraint2_2522
 L  constraint2_2523
 L  constraint2_1810
 L  constraint2_1811
 L  constraint2_1812
 L  constraint2_1813
 L  constraint2_2840
 L  constraint2_2841
 L  constraint2_2842
 L  constraint2_2843
 L  constraint2_2030
 L  constraint2_2031
 L  constraint2_2032
 L  constraint2_2033
 L  constraint2_4020
 L  constraint2_4021
 L  constraint2_4022
 L  constraint2_4023
COLUMNS
    MARKER    'MARKER'                 'INTORG'
    Z_533_0_0  OBJ       -2.9520724922053493e-01
    Z_533_0_0  constraint1_5330  1
    Z_533_0_0  constraint2_5330  1
    Z_533_0_1  OBJ       -4.1898324117753641e-02
    Z_533_0_1  constraint1_5330  1
    Z_533_0_1  constraint2_5331  1
    Z_533_0_2  OBJ       -1.6534794609449743e-02
    Z_533_0_2  constraint1_5330  1
    Z_533_0_2  constraint2_5332  1
    Z_533_0_3  OBJ       -2.2701381811890672e-01
    Z_533_0_3  constraint1_5330  1
    Z_533_0_3  constraint2_5333  1
    Z_533_1_0  OBJ       -9.0999766455802655e-03
    Z_533_1_0  constraint1_5331  1
    Z_533_1_0  constraint2_5330  1
    Z_533_1_1  OBJ       -7.4190398911550218e-03
    Z_533_1_1  constraint1_5331  1
    Z_533_1_1  constraint2_5331  1
    Z_533_1_2  OBJ       -4.6578675635072458e-01
    Z_533_1_2  constraint1_5331  1
    Z_533_1_2  constraint2_5332  1
    Z_533_1_3  OBJ       -1.7183637182977930e-02
    Z_533_1_3  constraint1_5331  1
    Z_533_1_3  constraint2_5333  1
    Z_252_0_0  OBJ       -3.2185400601841721e-03
    Z_252_0_0  constraint1_2520  1
    Z_252_0_0  constraint2_2520  1
    Z_252_0_1  OBJ       -1.9508064476044609e-02
    Z_252_0_1  constraint1_2520  1
    Z_252_0_1  constraint2_2521  1
    Z_252_0_2  OBJ       -3.4691572352973354e-01
    Z_252_0_2  constraint1_2520  1
    Z_252_0_2  constraint2_2522  1
    Z_252_0_3  OBJ       -6.0480787134976310e-01
    Z_252_0_3  constraint1_2520  1
    Z_252_0_3  constraint2_2523  1
    Z_181_0_0  OBJ       -1.2348903502795939e-03
    Z_181_0_0  constraint1_1810  1
    Z_181_0_0  constraint2_1810  1
    Z_181_0_1  OBJ       -1.4486897173342894e-02
    Z_181_0_1  constraint1_1810  1
    Z_181_0_1  constraint2_1811  1
    Z_181_0_2  OBJ       -3.5715208983734154e-01
    Z_181_0_2  constraint1_1810  1
    Z_181_0_2  constraint2_1812  1
    Z_181_0_3  OBJ       -5.8759770071662976e-01
    Z_181_0_3  constraint1_1810  1
    Z_181_0_3  constraint2_1813  1
    Z_284_1_0  OBJ       -1.0336798895344546e-02
    Z_284_1_0  constraint1_2841  1
    Z_284_1_0  constraint2_2840  1
    Z_284_1_1  OBJ       -1.0182457511448884e-02
    Z_284_1_1  constraint1_2841  1
    Z_284_1_1  constraint2_2841  1
    Z_284_1_2  OBJ       -5.2294626079782158e-01
    Z_284_1_2  constraint1_2841  1
    Z_284_1_2  constraint2_2842  1
    Z_284_1_3  OBJ       -2.6010388820210176e-02
    Z_284_1_3  constraint1_2841  1
    Z_284_1_3  constraint2_2843  1
    Z_284_0_0  OBJ       -2.5192047551829305e-01
    Z_284_0_0  constraint1_2840  1
    Z_284_0_0  constraint2_2840  1
    Z_284_0_1  OBJ       -1.4178309694453820e-01
    Z_284_0_1  constraint1_2840  1
    Z_284_0_1  constraint2_2841  1
    Z_284_0_2  OBJ       -6.2636265438637040e-02
    Z_284_0_2  constraint1_2840  1
    Z_284_0_2  constraint2_2842  1
    Z_284_0_3  OBJ       -2.1334820464423299e-02
    Z_284_0_3  constraint1_2840  1
    Z_284_0_3  constraint2_2843  1
    Z_203_0_0  OBJ       -6.7665914162441394e-04
    Z_203_0_0  constraint1_2030  1
    Z_203_0_0  constraint2_2030  1
    Z_203_0_1  OBJ       -5.6792380391570994e-02
    Z_203_0_1  constraint1_2030  1
    Z_203_0_1  constraint2_2031  1
    Z_203_0_2  OBJ       -4.5376641846661736e-01
    Z_203_0_2  constraint1_2030  1
    Z_203_0_2  constraint2_2032  1
    Z_203_0_3  OBJ       -6.2823141246676961e-01
    Z_203_0_3  constraint1_2030  1
    Z_203_0_3  constraint2_2033  1
    Z_402_0_0  OBJ       -1.1524731821599078e-03
    Z_402_0_0  constraint1_4020  1
    Z_402_0_0  constraint2_4020  1
    Z_402_0_1  OBJ       -1.8858110548060747e-02
    Z_402_0_1  constraint1_4020  1
    Z_402_0_1  constraint2_4021  1
    Z_402_0_2  OBJ       -3.7741589394698155e-01
    Z_402_0_2  constraint1_4020  1
    Z_402_0_2  constraint2_4022  1
    Z_402_0_3  OBJ       -5.6431334643850128e-01
    Z_402_0_3  constraint1_4020  1
    Z_402_0_3  constraint2_4023  1
    MARKER    'MARKER'                 'INTEND'
RHS
    RHS1      constraint1_5330  1
    RHS1      constraint1_5331  1
    RHS1      constraint1_2520  1
    RHS1      constraint1_1810  1
    RHS1      constraint1_2841  1
    RHS1      constraint1_2840  1
    RHS1      constraint1_2030  1
    RHS1      constraint1_4020  1
    RHS1      constraint2_5330  1
    RHS1      constraint2_5331  1
    RHS1      constraint2_5332  1
    RHS1      constraint2_5333  1
    RHS1      constraint2_2520  1
    RHS1      constraint2_2521  1
    RHS1      constraint2_2522  1
    RHS1      constraint2_2523  1
    RHS1      constraint2_1810  1
    RHS1      constraint2_1811  1
    RHS1      constraint2_1812  1
    RHS1      constraint2_1813  1
    RHS1      constraint2_2840  1
    RHS1      constraint2_2841  1
    RHS1      constraint2_2842  1
    RHS1      constraint2_2843  1
    RHS1      constraint2_2030  1
    RHS1      constraint2_2031  1
    RHS1      constraint2_2032  1
    RHS1      constraint2_2033  1
    RHS1      constraint2_4020  1
    RHS1      constraint2_4021  1
    RHS1      constraint2_4022  1
    RHS1      constraint2_4023  1
BOUNDS
 UP BND1      Z_533_0_0  1
 UP BND1      Z_533_0_1  1
 UP BND1      Z_533_0_2  1
 UP BND1      Z_533_0_3  1
 UP BND1      Z_533_1_0  1
 UP BND1      Z_533_1_1  1
 UP BND1      Z_533_1_2  1
 UP BND1      Z_533_1_3  1
 UP BND1      Z_252_0_0  1
 UP BND1      Z_252_0_1  1
 UP BND1      Z_252_0_2  1
 UP BND1      Z_252_0_3  1
 UP BND1      Z_181_0_0  1
 UP BND1      Z_181_0_1  1
 UP BND1      Z_181_0_2  1
 UP BND1      Z_181_0_3  1
 UP BND1      Z_284_1_0  1
 UP BND1      Z_284_1_1  1
 UP BND1      Z_284_1_2  1
 UP BND1      Z_284_1_3  1
 UP BND1      Z_284_0_0  1
 UP BND1      Z_284_0_1  1
 UP BND1      Z_284_0_2  1
 UP BND1      Z_284_0_3  1
 UP BND1      Z_203_0_0  1
 UP BND1      Z_203_0_1  1
 UP BND1      Z_203_0_2  1
 UP BND1      Z_203_0_3  1
 UP BND1      Z_402_0_0  1
 UP BND1      Z_402_0_1  1
 UP BND1      Z_402_0_2  1
 UP BND1      Z_402_0_3  1
QUADOBJ
    Z_533_0_0  Z_252_0_0  -1.9999999999999996e-01
    Z_533_0_0  Z_181_0_0  -1.9999999999999996e-01
    Z_533_0_0  Z_402_0_0  -1.9999999999999996e-01
    Z_533_0_1  Z_252_0_1  -1.9999999999999996e-01
    Z_533_0_1  Z_181_0_1  -1.9999999999999996e-01
    Z_533_0_1  Z_402_0_1  -1.9999999999999996e-01
    Z_533_0_2  Z_252_0_2  -1.9999999999999996e-01
    Z_533_0_2  Z_181_0_2  -1.9999999999999996e-01
    Z_533_0_2  Z_402_0_2  -1.9999999999999996e-01
    Z_533_0_3  Z_252_0_3  -1.9999999999999996e-01
    Z_533_0_3  Z_181_0_3  -1.9999999999999996e-01
    Z_533_0_3  Z_402_0_3  -1.9999999999999996e-01
    Z_533_1_0  Z_252_0_0  -1.7820307325610144e-02
    Z_533_1_0  Z_181_0_0  -5.3832361366304578e-04
    Z_533_1_0  Z_402_0_0  -1.7820307325610144e-02
    Z_533_1_1  Z_252_0_1  -1.7820307325610144e-02
    Z_533_1_1  Z_181_0_1  -5.3832361366304578e-04
    Z_533_1_1  Z_402_0_1  -1.7820307325610144e-02
    Z_533_1_2  Z_252_0_2  -1.7820307325610144e-02
    Z_533_1_2  Z_181_0_2  -5.3832361366304578e-04
    Z_533_1_2  Z_402_0_2  -1.7820307325610144e-02
    Z_533_1_3  Z_252_0_3  -1.7820307325610144e-02
    Z_533_1_3  Z_181_0_3  -5.3832361366304578e-04
    Z_533_1_3  Z_402_0_3  -1.7820307325610144e-02
    Z_252_0_0  Z_181_0_0  -4.6143371571083190e-02
    Z_252_0_0  Z_284_0_0  -1.7585646900233381e-02
    Z_252_0_0  Z_402_0_0  -1.0329852790579537e-01
    Z_252_0_1  Z_181_0_1  -4.6143371571083190e-02
    Z_252_0_1  Z_284_0_1  -1.7585646900233381e-02
    Z_252_0_1  Z_402_0_1  -1.0329852790579537e-01
    Z_252_0_2  Z_181_0_2  -4.6143371571083190e-02
    Z_252_0_2  Z_284_0_2  -1.7585646900233381e-02
    Z_252_0_2  Z_402_0_2  -1.0329852790579537e-01
    Z_252_0_3  Z_181_0_3  -4.6143371571083190e-02
    Z_252_0_3  Z_284_0_3  -1.7585646900233381e-02
    Z_252_0_3  Z_402_0_3  -1.0329852790579537e-01
    Z_181_0_0  Z_284_1_0  -2.2222222222222218e-04
    Z_181_0_0  Z_284_0_0  -1.6603572088364885e-02
    Z_181_0_0  Z_203_0_0  -3.0665026820858296e-02
    Z_181_0_0  Z_402_0_0  -1.0089915640641371e-01
    Z_181_0_1  Z_284_1_1  -2.2222222222222218e-04
    Z_181_0_1  Z_284_0_1  -1.6603572088364885e-02
    Z_181_0_1  Z_203_0_1  -3.0665026820858296e-02
    Z_181_0_1  Z_402_0_1  -1.0089915640641371e-01
    Z_181_0_2  Z_284_1_2  -2.2222222222222218e-04
    Z_181_0_2  Z_284_0_2  -1.6603572088364885e-02
    Z_181_0_2  Z_203_0_2  -3.0665026820858296e-02
    Z_181_0_2  Z_402_0_2  -1.0089915640641371e-01
    Z_181_0_3  Z_284_1_3  -2.2222222222222218e-04
    Z_181_0_3  Z_284_0_3  -1.6603572088364885e-02
    Z_181_0_3  Z_203_0_3  -3.0665026820858296e-02
    Z_181_0_3  Z_402_0_3  -1.0089915640641371e-01
    Z_284_1_0  Z_203_0_0  -2.7333231722806464e-05
    Z_284_1_1  Z_203_0_1  -2.7333231722806464e-05
    Z_284_1_2  Z_203_0_2  -2.7333231722806464e-05
    Z_284_1_3  Z_203_0_3  -2.7333231722806464e-05
    Z_284_0_0  Z_203_0_0  -2.3052105331032084e-02
    Z_284_0_0  Z_402_0_0  -1.7585646900233381e-02
    Z_284_0_1  Z_203_0_1  -2.3052105331032084e-02
    Z_284_0_1  Z_402_0_1  -1.7585646900233381e-02
    Z_284_0_2  Z_203_0_2  -2.3052105331032084e-02
    Z_284_0_2  Z_402_0_2  -1.7585646900233381e-02
    Z_284_0_3  Z_203_0_3  -2.3052105331032084e-02
    Z_284_0_3  Z_402_0_3  -1.7585646900233381e-02
ENDATA
